
Gurobi 9.5.1 (linux64) logging started Wed Mar  9 18:05:32 2022

Set parameter LogFile to value "../results/logs/log_2022_03_09_17_57.csv_9_75.log"
Set parameter Method to value 3
Gurobi Optimizer version 9.5.1 build v9.5.1rc2 (linux64)
Thread count: 8 physical cores, 8 logical processors, using up to 8 threads
Optimize a model with 238 rows, 9882 columns and 8569 nonzeros
Model fingerprint: 0x258e46d1
Variable types: 4941 continuous, 4941 integer (4941 binary)
Coefficient statistics:
  Matrix range     [1e+00, 9e+00]
  Objective range  [1e+00, 1e+00]
  Bounds range     [1e+00, 1e+00]
  RHS range        [1e+00, 8e+01]
Found heuristic solution: objective -0.0000000
Presolve removed 171 rows and 9769 columns
Presolve time: 0.00s
Presolved: 67 rows, 113 columns, 403 nonzeros
Extracted 24 lazy constraints
Variable types: 60 continuous, 53 integer (51 binary)

Root relaxation: objective 4.683951e+01, 23 iterations, 0.00 seconds (0.00 work units)

    Nodes    |    Current Node    |     Objective Bounds      |     Work
 Expl Unexpl |  Obj  Depth IntInf | Incumbent    BestBd   Gap | It/Node Time

     0     0   46.83951    0   15   -0.00000   46.83951      -     -    0s
H    0     0                       2.0000000   46.83951  2242%     -    0s
H    0     0                      10.0000000   46.83951   368%     -    0s
     0     0   29.97808    0   21   10.00000   29.97808   200%     -    0s
     0     0   29.97426    0   21   10.00000   29.97426   200%     -    0s
     0     0   28.67929    0   20   10.00000   28.67929   187%     -    0s
     0     0   28.62111    0   22   10.00000   28.62111   186%     -    0s
H    0     0                      27.0000000   28.62111  6.00%     -    0s
     0     0   28.40391    0   12   27.00000   28.40391  5.20%     -    0s
     0     0   28.40128    0   12   27.00000   28.40128  5.19%     -    0s
H    0     0                      28.0000000   28.36473  1.30%     -    0s
     0     0   28.36473    0    9   28.00000   28.36473  1.30%     -    0s

Cutting planes:
  Gomory: 8
  Implied bound: 6
  MIR: 30
  RLT: 3
  Relax-and-lift: 1
  Lazy constraints: 24

Explored 1 nodes (219 simplex iterations) in 0.03 seconds (0.01 work units)
Thread count was 8 (of 8 available processors)

Solution count 5: 28 27 10 ... -0

Optimal solution found (tolerance 1.00e-04)
Best objective 2.800000000000e+01, best bound 2.800000000000e+01, gap 0.0000%
